(set-option :produce-models true)
(set-logic QF_UF)
(declare-fun p12() Bool)
(declare-fun p2() Bool)
(declare-fun p21() Bool)
(declare-fun p5() Bool)
(declare-fun p7() Bool)
(declare-fun p10() Bool)
(declare-fun p8() Bool)
(declare-fun p17() Bool)
(declare-fun p1() Bool)
(declare-fun p14() Bool)
(declare-fun p22() Bool)
(declare-fun p9() Bool)
(declare-fun p20() Bool)
(declare-fun p19() Bool)
(declare-fun p11() Bool)
(declare-fun p0() Bool)
(declare-fun p16() Bool)
(declare-fun p23() Bool)
(declare-fun p24() Bool)
(declare-fun p4() Bool)
(declare-fun p15() Bool)
(declare-fun p13() Bool)
(declare-fun p6() Bool)
(declare-fun p18() Bool)
(declare-fun p3() Bool)
(assert
(and (or p12 (not p2) (not p21)) (or p21 (not p5) p7) (or (not p10) (not p8) (not p17)) (or (not p1) p8 p14) (or (not p22) p9 (not p1)) (or p20 p19 p11) (or p8 p12 p0) (or (not p16) (not p22) p20) (or p12 p21 (not p10)) (or (not p23) p19 p2) (or p17 p22 p9) (or p24 p4 (not p4)) (or (not p10) p15 (not p11)) (or p5 (not p13) p15) (or p20 p14 p6) (or (not p17) (not p8) (not p9)) (or (not p0) (not p12) (not p0)) (or (not p24) (not p16) p17) (or p16 p1 (not p11)) (or (not p5) (not p15) p21) (or p5 p5 (not p22)) (or (not p18) p4 p1) (or p6 p24 (not p4)) (or (not p4) (not p8) (not p8)) (or p24 (not p7) p8) (or p19 (not p15) (not p9)) (or (not p18) p19 p17) (or (not p4) p1 (not p6)) (or (not p5) (not p19) (not p10)) (or (not p21) (not p19) (not p1)) (or p17 (not p4) (not p0)) (or (not p8) (not p4) p12) (or (not p5) (not p20) (not p13)) (or p5 p10 p2) (or p16 p13 (not p22)) (or p0 p22 (not p20)) (or (not p5) (not p18) p12) (or (not p12) (not p18) (not p16)) (or (not p7) (not p8) (not p16)) (or p11 (not p1) p19) (or (not p3) p13 p5) (or (not p15) (not p18) p0) (or (not p19) (not p12) (not p19)) (or p24 (not p21) (not p19)) (or p3 p18 p9) (or p17 p19 p21) (or (not p7) (not p20) (not p16)) (or (not p6) (not p11) p10) (or (not p17) p18 (not p7)) (or p8 (not p2) (not p4)) (or (not p10) p22 (not p3)) (or p9 (not p9) (not p1)) (or (not p2) (not p1) (not p7)) (or p20 (not p18) (not p8)) (or (not p5) (not p14) p9) (or p20 (not p19) (not p14)) (or p17 p12 (not p20)) (or (not p19) p11 p21) (or (not p18) p4 p21) (or p8 p21 (not p3)) (or (not p7) (not p22) p4) (or (not p7) (not p17) (not p18)) (or (not p13) p17 p18) (or p15 (not p23) p9) (or p18 p2 (not p13)) (or (not p1) p20 p3) (or p9 p3 (not p7)) (or p6 (not p18) (not p10)) (or (not p19) p7 p6) (or (not p3) (not p12) p7) (or (not p18) (not p21) p18) (or p6 (not p21) (not p22)) (or p6 p18 (not p18)) (or p5 (not p9) (not p13)) (or (not p22) (not p11) p22) (or (not p19) p22 (not p16)) (or p11 p23 (not p18)) (or (not p11) (not p23) (not p7)) (or p21 p13 (not p16)) (or p13 p18 (not p0)) (or p5 (not p2) p23) (or p18 (not p0) (not p3)) (or (not p0) p6 p8) (or p22 p6 (not p23)) (or p22 (not p18) p15) (or p21 (not p19) p11) (or (not p19) p14 p13) (or (not p16) p20 p21) (or p20 (not p24) p19) (or (not p19) (not p10) p11) (or (not p7) (not p0) p1) (or (not p5) (not p1) p19) (or (not p23) (not p1) (not p8)) (or p13 p18 (not p17)) (or (not p0) (not p20) p21) (or (not p19) (not p21) p4) (or p14 (not p5) p7) (or (not p24) p3 p2) (or p12 (not p8) p12) (or (not p18) (not p12) p5) (or (not p1) p19 p10) (or p21 (not p5) (not p24)) (or (not p0) (not p12) p7) (or p7 (not p13) p15) (or p11 p17 (not p22)) (or (not p6) (not p3) p16) (or p3 p7 p19))
)
(check-sat)
(get-model)
